
        $ From http://www.csplib.org/Problems/prob009/data/helmut.pdf
        $ Problem number 113
        $ Sequence length : 25
        language ESSENCE' 1.0
        letting sizemaster be 380
        letting sizes be sequence(4,5,6,9,13,15,16,17,22,24,33,38,44,49,50,56,60,67,82,84,95,108,121,177,203)
        